==> SCALING              = 0
==> MAXTIME              = 3600
==> OUTPUTLOG            = 1
FICO Xpress v8.5.9, solve started 23:51:43, Jun 8, 2019
Maximizing MILP Seating model
Original problem has:
       230 rows          300 cols         7440 elements       300 globals
Presolved problem has:
       103 rows          204 cols         2431 elements       198 globals
LP relaxation tightened
Will try to keep branch and bound tree memory usage below 7.2GB
 *** Heuristic solution found:    22.000000      Time: 0 ***
Starting concurrent solve with dual

 Concurrent-Solve,   0s
            Dual        
    objective   dual inf
 D  102.00000   .0000000
------- optimal --------
Concurrent statistics:
      Dual: 35 simplex iterations, 0.00s
Optimal solution found
 
   Its         Obj Value      S   Ninf  Nneg   Sum Dual Inf  Time
    35        102.000000      D      0     0        .000000     0
Dual solved problem
  35 simplex iterations in 0s

Final objective                         : 1.020000000000000e+02
  Max primal violation      (abs / rel) : 1.998e-15 / 1.110e-16
  Max dual violation        (abs / rel) :       0.0 /       0.0
  Max complementarity viol. (abs / rel) :       0.0 /       0.0
All values within tolerances

Starting root cutting & heuristics
 
 Its Type    BestSoln    BestBound   Sols    Add    Del     Gap     GInf   Time
   1  K     22.000000   102.000000      1    101      0   78.43%      28      0
   2  K     22.000000   102.000000      1    104     87   78.43%      40      0
   3  K     22.000000   102.000000      1     94     89   78.43%      53      0
   4  K     22.000000   102.000000      1     88     85   78.43%      55      0
   5  K     22.000000   102.000000      1     83     95   78.43%      52      0
   6  K     22.000000   102.000000      1     85     77   78.43%      60      0
   7  K     22.000000   102.000000      1     94     87   78.43%      56      0
   8  K     22.000000   102.000000      1     94     87   78.43%      68      0
   9  K     22.000000   102.000000      1     88     92   78.43%      55      0
  10  K     22.000000   102.000000      1    112     86   78.43%      68      0
  11  K     22.000000   102.000000      1    104    106   78.43%      68      0
  12  K     22.000000   102.000000      1     85    100   78.43%      68      0
  13  K     22.000000   102.000000      1     68     83   78.43%      65      0
  14  K     22.000000   102.000000      1     91     73   78.43%      79      0
  15  K     22.000000   102.000000      1     94     85   78.43%      77      0
  16  K     22.000000   102.000000      1     83     94   78.43%      82      0
  17  K     22.000000   102.000000      1     98     81   78.43%      87      0
  18  K     22.000000   102.000000      1     12     94   78.43%      49      0
  19  K     22.000000   102.000000      1    124     40   78.43%      58      0
  20  K     22.000000   102.000000      1    123    221   78.43%      79      0
  21  G     22.000000   102.000000      1     83      5   78.43%      82      0
  22  G     22.000000   102.000000      1     73    152   78.43%      78      0
Heuristic search started
R           28.000000   102.000000      2                 72.55%       0      0
Heuristic search stopped
M           34.000000   102.000000      3                 66.67%       0      0
M           38.000000   102.000000      4                 62.75%       0      0
M           41.000000   102.000000      5                 59.80%       0      0
M           44.000000   102.000000      6                 56.86%       0      0
 
Cuts in the matrix         : 62
Cut elements in the matrix : 1471
 
Starting tree search.
Deterministic mode with up to 4 running threads and up to 8 tasks.
 
    Node     BestSoln    BestBound   Sols Active  Depth     Gap     GInf   Time
       1    44.000000   102.000000      6      2      1   56.86%      48      0
       2    44.000000   102.000000      6      2      2   56.86%      62      0
       3    44.000000   102.000000      6      2      2   56.86%      41      0
       4    44.000000   102.000000      6      2      3   56.86%      31      0
       5    44.000000   102.000000      6      2      3   56.86%      46      0
       6    44.000000   102.000000      6      2      4   56.86%      31      0
       7    44.000000   102.000000      6      5      4   56.86%      52      0
       8    44.000000   102.000000      6      8      3   56.86%      59      0
       9    44.000000   102.000000      6      8      3   56.86%      34      1
      10    44.000000   102.000000      6      8      4   56.86%      53      1
      20    44.000000   102.000000      6     13      7   56.86%      32      1
      37    44.000000   102.000000      6     13     16   56.86%      37      1
      48    44.000000   102.000000      6     23      8   56.86%      30      1
      67    44.000000   102.000000      6     23     15   56.86%      24      1
      79    44.000000   102.000000      6     23     17   56.86%      40      1
      89    44.000000   102.000000      6     23     21   56.86%      35      1
     108    44.000000   102.000000      6     23     33   56.86%      33      1
     210    44.000000   102.000000      6     79     51   56.86%      39      1
a    266    51.000000   102.000000      7     79     23   50.00%       0      1
B&B tree size: 1.9MB total
 
    Node     BestSoln    BestBound   Sols Active  Depth     Gap     GInf   Time
     314    51.000000   102.000000      7     79     54   50.00%      40      1
     414    51.000000   102.000000      7    105     41   50.00%      12      1
     516    51.000000   102.000000      7    105     14   50.00%      16      1
     621    51.000000   102.000000      7    105     32   50.00%      22      2
     721    51.000000   102.000000      7    105     13   50.00%      14      2
a    785    53.000000   102.000000      8    105     32   48.04%       0      2
     839    53.000000   102.000000      8    105     28   48.04%       7      2
     940    53.000000   102.000000      8    181     42   48.04%       9      2
    1064    53.000000   102.000000      8    237     32   48.04%      28      2
a   1147    55.000000   102.000000      9    237     36   46.08%       0      2
    1193    55.000000   102.000000      9    283      1   46.08%       1      2
    1304    55.000000   102.000000      9    283     28   46.08%      34      2
    1426    55.000000   102.000000      9    348     30   46.08%      18      2
    1529    55.000000   102.000000      9    348     77   46.08%      26      2
    1633    55.000000   102.000000      9    437     56   46.08%      27      2
    1735    55.000000   102.000000      9    437     47   46.08%      36      2
    1842    55.000000   102.000000      9    437     49   46.08%      40      2
    1952    55.000000   102.000000      9    437     61   46.08%      43      3
    2061    55.000000   102.000000      9    437     70   46.08%      35      3
    2165    55.000000   102.000000      9    437     52   46.08%      35      3
B&B tree size: 7.0MB total
 
    Node     BestSoln    BestBound   Sols Active  Depth     Gap     GInf   Time
    2268    55.000000   102.000000      9    649      1   46.08%       1      3
    2376    55.000000   102.000000      9    649     57   46.08%      37      3
    2476    55.000000   102.000000      9    649     61   46.08%      49      3
    2588    55.000000   102.000000      9    649     74   46.08%      12      3
    2695    55.000000   102.000000      9    649     74   46.08%      27      3
    2811    55.000000   102.000000      9    846     80   46.08%      26      3
    2912    55.000000   102.000000      9    846     25   46.08%      48      3
    3014    55.000000   102.000000      9    846     59   46.08%      14      3
    3125    55.000000   102.000000      9    846     90   46.08%      24      4
    3240    55.000000   102.000000      9    846     48   46.08%      34      4
    3350    55.000000   102.000000      9    846     52   46.08%      22      4
    3457    55.000000   102.000000      9    846     83   46.08%      31      4
    3558    55.000000   102.000000      9    846     54   46.08%      47      4
    3659    55.000000   102.000000      9    846     41   46.08%      44      4
    3772    55.000000   102.000000      9    846     53   46.08%      14      4
    3879    55.000000   102.000000      9   1054     59   46.08%      21      4
    3987    55.000000   102.000000      9   1054     31   46.08%      39      4
    4097    55.000000   102.000000      9   1054     80   46.08%      29      4
    4197    55.000000   102.000000      9   1054     33   46.08%      49      4
    4305    55.000000   102.000000      9   1054     58   46.08%      33      4
B&B tree size: 12MB total
 
    Node     BestSoln    BestBound   Sols Active  Depth     Gap     GInf   Time
    4426    55.000000   102.000000      9   1054     62   46.08%      48      5
    4553    55.000000   102.000000      9   1283      1   46.08%       1      5
    4658    55.000000   102.000000      9   1283     54   46.08%      39      5
    4774    55.000000   102.000000      9   1283     70   46.08%      36      5
    4882    55.000000   102.000000      9   1283     51   46.08%      41      5
    4987    55.000000   102.000000      9   1283     68   46.08%      25      5
    5102    55.000000   102.000000      9   1283     31   46.08%      23      5
    5214    55.000000   102.000000      9   1573      1   46.08%       1      5
    5321    55.000000   102.000000      9   1573     67   46.08%      40      5
    5430    55.000000   102.000000      9   1573     64   46.08%      15      5
    5533    55.000000   102.000000      9   1573     81   46.08%      59      5
    5640    55.000000   102.000000      9   1573     85   46.08%      37      5
    5760    55.000000   102.000000      9   1573     73   46.08%      28      6
    5876    55.000000   102.000000      9   1573     81   46.08%      32      6
    5995    55.000000   102.000000      9   1573    110   46.08%      34      6
    6103    55.000000   102.000000      9   1573     87   46.08%      34      6
    6226    55.000000   102.000000      9   1573     74   46.08%      24      6
a   6253    59.000000   102.000000     10   1573     47   42.16%       0      6
    6340    59.000000   102.000000     10   1573     74   42.16%      17      6
    6442    59.000000   102.000000     10   1573     83   42.16%      41      6
B&B tree size: 17MB total
 
    Node     BestSoln    BestBound   Sols Active  Depth     Gap     GInf   Time
    6682    59.000000   102.000000     10   1780      1   42.16%       1      6
    6784    59.000000   102.000000     10   1780     40   42.16%      61      6
    6909    59.000000   102.000000     10   1987      1   42.16%       1      6
    7019    59.000000   102.000000     10   1987     64   42.16%      38      6
    7125    59.000000   102.000000     10   1987     28   42.16%      41      7
    7236    59.000000   102.000000     10   2332      1   42.16%       1      7
    7339    59.000000   102.000000     10   2332     15   42.16%      31      7
    7443    59.000000   102.000000     10   2541     17   42.16%      22      7
    7547    59.000000   102.000000     10   2541     10   42.16%      48      7
    7659    59.000000   102.000000     10   2877      1   42.16%       1      7
    7789    59.000000   100.391575     10   3238      1   41.23%       1      7
    7897    59.000000   100.391575     10   3238     46   41.23%      39      7
    8010    59.000000   100.391575     10   3238     82   41.23%      25      7
a   8037    60.000000   100.391575     11   3238     41   40.23%       0      7
    8211    60.000000    99.574939     11   3288      1   39.74%       1      7
    8318    60.000000    99.574939     11   3288     67   39.74%      49      7
    8426    60.000000    99.574939     11   3288     64   39.74%      46      7
    8535    60.000000    99.574939     11   3509     86   39.74%      42      7
    8638    60.000000    99.574939     11   3509     79   39.74%      40      8
    8747    60.000000    99.574939     11   3509     88   39.74%      40      8
B&B tree size: 19MB total
 
    Node     BestSoln    BestBound   Sols Active  Depth     Gap     GInf   Time
    8847    60.000000    99.574939     11   3509     73   39.74%      45      8
    8957    60.000000    99.574939     11   3509     75   39.74%      54      8
    9070    60.000000    98.555551     11   3584     75   39.12%      42      8
    9180    60.000000    98.555551     11   3584     41   39.12%      32      8
    9285    60.000000    98.555551     11   3584     76   39.12%      28      8
    9386    60.000000    98.555551     11   3584     80   39.12%      26      8
    9495    60.000000    98.555551     11   3584     79   39.12%      42      8
    9604    60.000000    98.555551     11   3584     43   39.12%      27      8
    9720    60.000000    98.555551     11   3584     61   39.12%      36      8
    9830    60.000000    98.555551     11   3584     65   39.12%      34      8
    9946    60.000000    98.555551     11   3792      1   39.12%       1      8
   10048    60.000000    98.555551     11   3792     72   39.12%      51      9
   11061    60.000000    92.940741     11   4282     80   35.44%      43      9
   12083    60.000000    92.447931     11   4561     80   35.10%      48     10
   13089    60.000000    92.447931     11   4781     60   35.10%      32     11
   14095    60.000000    92.447931     11   5176     45   35.10%      16     11
   15111    60.000000    91.000000     11   5471     71   34.07%      29     12
   16116    60.000000    88.901738     11   5909     46   32.51%      26     13
   17117    60.000000    88.377565     11   6039      1   32.11%       1     13
   18125    60.000000    88.377565     11   6170     57   32.11%      42     14
B&B tree size: 34MB total
 
    Node     BestSoln    BestBound   Sols Active  Depth     Gap     GInf   Time
   19126    60.000000    88.000000     11   6808     84   31.82%      31     15
   20131    60.000000    88.000000     11   6915     64   31.82%      54     16
   21137    60.000000    88.000000     11   7108     78   31.82%      37     16
   22138    60.000000    87.000000     11   7547      1   31.03%       1     17
   23156    60.000000    86.243137     11   7764     31   30.43%      20     18
   24160    60.000000    86.000000     11   7938     82   30.23%      51     18
   25165    60.000000    86.000000     11   8164     60   30.23%      24     19
   26177    60.000000    85.007455     11   8580     32   29.42%      32     20
   27182    60.000000    85.000000     11   8706     32   29.41%      42     20
   28193    60.000000    85.000000     11   9044     59   29.41%      22     21
   29202    60.000000    85.000000     11   9259     78   29.41%      25     22
   30210    60.000000    84.767236     11   9458     53   29.22%      24     22
   31220    60.000000    84.707653     11   9559     82   29.17%      43     23
   32240    60.000000    84.160870     11   9878     76   28.71%      26     24
   33241    60.000000    84.160870     11  10015     82   28.71%      47     24
   34253    60.000000    84.000000     11  10088     43   28.57%      22     25
   35262    60.000000    84.000000     11  10337     54   28.57%      20     26
   36266    60.000000    83.331571     11  10547     82   28.00%      31     26
   37275    60.000000    83.000000     11  10631     42   27.71%      22     27
   38296    60.000000    83.000000     11  10776     33   27.71%      20     28
B&B tree size: 53MB total
 
    Node     BestSoln    BestBound   Sols Active  Depth     Gap     GInf   Time
   39305    60.000000    82.965439     11  10989     78   27.68%      35     28
   40310    60.000000    82.936549     11  11046     61   27.66%      29     29
   41322    60.000000    82.600000     11  11309     29   27.36%      30     30
   42329    60.000000    82.496695     11  11424     79   27.27%      32     30
   43334    60.000000    82.054438     11  11711     70   26.88%      35     31
   44342    60.000000    82.000000     11  11774     35   26.83%      37     31
   45356    60.000000    82.000000     11  12000     28   26.83%      17     32
   46356    60.000000    82.000000     11  12166     87   26.83%      23     33
   47357    60.000000    82.000000     11  12455     26   26.83%      21     33
   48362    60.000000    82.000000     11  12508     33   26.83%      30     34
   49373    60.000000    81.899741     11  12610     57   26.74%      47     35
   50385    60.000000    81.738672     11  12773     49   26.60%      27     35
   51386    60.000000    81.342432     11  12938     20   26.24%      54     36
   52388    60.000000    81.275604     11  13034     25   26.18%      27     37
   53402    60.000000    81.000000     11  13197     44   25.93%      33     38
   54410    60.000000    81.000000     11  13369     33   25.93%      38     39
   55423    60.000000    81.000000     11  13508     67   25.93%      57     39
   56424    60.000000    81.000000     11  13623     52   25.93%      22     40
   57426    60.000000    81.000000     11  13703     51   25.93%      23     41
   58453    60.000000    80.866954     11  13883     45   25.80%      13     41
B&B tree size: 70MB total
 
    Node     BestSoln    BestBound   Sols Active  Depth     Gap     GInf   Time
   59456    60.000000    80.756080     11  13949     63   25.70%      35     42
   60459    60.000000    80.562003     11  14094     34   25.52%      30     43
   61462    60.000000    80.400000     11  14185     32   25.37%      15     43
   62466    60.000000    80.166667     11  14230     58   25.16%      38     44
   63479    60.000000    80.000000     11  14318     80   25.00%      24     45
   64483    60.000000    80.000000     11  14406     64   25.00%      28     45
   65503    60.000000    80.000000     11  14485     55   25.00%      30     46
   66520    60.000000    80.000000     11  14587     41   25.00%      12     47
   67544    60.000000    79.778545     11  14685     58   24.79%      32     47
   68544    60.000000    79.624386     11  14788     62   24.65%      52     48
   69558    60.000000    79.472063     11  14865     43   24.50%      46     48
   70561    60.000000    79.043442     11  14979     60   24.09%      35     49
   71589    60.000000    79.000000     11  15071     59   24.05%      30     50
   72591    60.000000    79.000000     11  15152     49   24.05%      14     50
   73600    60.000000    79.000000     11  15152     67   24.05%      33     51
User interrupt (9) triggered.
 *** Search unfinished ***    Time:    52 Nodes:      74399
Number of integer feasible solutions found is 11
Best integer solution found is    60.000000
Best bound is    78.992047
